1  10
2  7
3  4
4  4
5  1
6  7
7  10
8  7
9  8
10  3
11  2
12  3
13  3
14  3
15  3
16  3
17  1
18  10
19  2
20  8
21  5
22  8
23  6
24  1
25  1
26  10
27  10
28  3
29  3
30  10
31  4
32  4
33  10
34  1
35  10
36  5
37  8
38  2
39  1
40  5
41  10
42  1
43  2
44  7
45  8
46  1
47  5
48  8
49  10
50  1
51  3
52  8
53  1
54  10
55  6
56  1
57  7
58  7
59  2
60  4
61  8
62  10
63  4
64  5
65  1
66  10
67  10
68  8
69  5
70  1
71  10
72  7
73  3
74  10
75  10
76  5
77  4
78  1
79  7
80  10
81  9
82  10
83  7
84  4
85  5
86  6
87  4
88  9
89  3
90  10
91  7
92  2
93  7
94  8
95  3
96  1
97  1
98  5
99  6
100  3
101  3
102  3
103  3
104  3
105  3
106  9
107  1
108  3
109  3
110  1
111  5
112  1
113  8
114  10
115  4
116  8
117  2
118  5
119  1
120  1
121  10
122  8
123  4
124  6
125  3
126  3
127  6
128  6
129  7
130  1
131  8
132  4
133  1
134  10
135  9
136  6
137  5
138  1
139  5
140  4
141  3
142  10
143  2
144  1
145  1
146  10
147  7
148  4
149  5
150  1
151  7
152  5
153  3
154  10
155  9
156  6
157  6
158  8
159  10
160  2
161  3
162  1
163  5
164  10
165  8
166  5
167  1
168  1
169  10
170  10
171  9
172  1
173  3
174  3
175  8
176  7
177  10
178  9
179  1
180  3
181  9
182  4
183  3
184  7